NAME : 10_3_3_3_(03).dat
COMMENT : Henke, Speranza, Wäscher, 2015
TYPE : MCVRP
DIMENSION : 11
EDGE_WEIGHT_TYPE : DISTANCE_MATRIX
CAPACITY : 1000
VEHICLES : 2
PRODUCT TYPES : 3
COMPARTMENTS : 3
NODE_COORD_SECTION
1 50 50
2 91.18 12.99
3 48.09 25.97
4 75.43 99.01
5 89.23 69.16
6 53.6 75.94
7 0.78 85.52
8 0.27 21.91
9 26.15 69.16
10 81.16 84.61
11 99.86 49.29
DEMAND_SECTION
1 0 0 0
2 72 38 10
3 59 35 23
4 8 67 5
5 113 14 41
6 2 53 38
7 145 42 20
8 14 75 29
9 151 26 27
10 108 22 45
11 42 54 46
DEPOT_SECTION
1
EOF